28 28
22
3 3 22 25
3 4 25 24
3 5 13 23
3 6 25 18
3 7 16 21
3 8 25 10
3 9 22 16
3 10 25 0
3 11 19 17
3 16 22 0
3 17 19 0
3 21 16 0
3 23 13 0
4 3 9 25
4 4 9 21
4 5 5 23
4 8 9 13
4 13 9 0
4 23 5 0
5 6 0 22
5 9 0 13
5 13 0 0
